container_length = 48;
container_width = 36;
container_height = 15;
n = 6;
boxes = [|9, 2, 2, 10
         |4, 3, 2, 33
         |12,3, 2, 10
         |5, 3, 2, 27
         |8, 4, 2, 15
         |6, 3, 2, 25|];
